# Solution for model r5_t27_m4_4 Batch Number: 5
# Finished Task: 26 / 27
# Makespan: 840.0, Total Distance: 661.0, Total Time: 1.5871
# R O S F Batch
0 0 7 0.0 0.0 -1
1 1 21 0.0 0.0 -1
2 2 5 0.0 0.0 -1
3 3 27 0.0 0.0 -1
4 4 18 0.0 0.0 -1
5 2 25 297.0 324.0 0
6 -1 -1 -1.0 -1.0 2
7 0 17 358.0 387.0 0
8 2 24 612.0 637.0 1
9 0 11 478.0 502.0 0
10 2 8 480.0 515.0 1
11 0 30 558.0 590.0 1
12 3 -1 743.0 779.0 3
13 1 14 376.0 412.0 0
14 1 29 444.0 477.0 0
15 1 20 293.0 314.0 0
16 1 22 608.0 637.0 0
17 0 28 397.0 435.0 0
18 4 -1 497.0 532.0 0
19 2 26 743.0 768.0 3
20 1 13 324.0 356.0 0
21 1 15 246.0 269.0 0
22 1 23 655.0 686.0 2
23 1 -1 813.0 840.0 4
24 2 31 648.0 680.0 2
25 2 10 433.0 453.0 1
26 2 -1 809.0 840.0 4
27 3 12 598.0 637.0 0
28 0 9 444.0 470.0 0
29 1 16 514.0 537.0 0
30 0 -1 603.0 638.0 4
31 2 19 721.0 743.0 3
